job_count = 15 ;
duration = [|6, 13, 2|11, 3, 8|16, 2, 10|8, 9, 10|22, 15, 8|11, 9, 10|8, 12, 10|7, 15, 4|22, 12, 2|12, 10, 3|15, 9, 6|18, 17, 4|8, 13, 10|19, 19, 8|16, 9, 9|] ;
machine_count = 3 ;
cost = [|30, 37, 53|25, 33, 45|21, 30, 53|17, 37, 40|17, 29, 28|25, 22, 30|25, 33, 53|17, 31, 38|31, 22, 39|21, 32, 39|23, 37, 52|28, 21, 42|18, 34, 50|25, 27, 45|18, 31, 44|] ;
deadline = [33, 33, 33, 33, 33, 33, 33, 33, 33, 33, 33, 33, 33, 33, 33] ;
release = [0, 0, 0, 0, 0, 0, 0, 0, 0, 0, 0, 0, 0, 0, 0] ;
resource = [|6, 6, 6|8, 8, 8|1, 1, 1|9, 9, 9|3, 3, 3|3, 3, 3|6, 6, 6|7, 7, 7|1, 1, 1|8, 8, 8|8, 8, 8|2, 2, 2|8, 8, 8|8, 8, 8|3, 3, 3|] ;
capacities = [10, 10, 10] ;
